
        $ From http://www.csplib.org/Problems/prob009/data/helmut.pdf
        $ Problem number 91
        $ Sequence length : 25
        language ESSENCE' 1.0
        letting sizemaster be 323
        letting sizes be sequence(2,6,9,11,13,14,18,19,20,23,27,28,29,42,46,48,60,64,72,74,79,82,98,146,177)
        